NAME : XML100_3164_09
DIMENSION : 101
NB_CLUSTERS : 4
CLUSTERING_ALG : KMeans
CLUSTERING_PARAMS : k(3)
CLUSTERS
1 0
2 1 3 4 6 9 10 14 24 27 29 32 33 39 43 46 48 50 55 56 59 63 66 70 72 76 84 85 86 92 94 96 97 99
3 7 11 13 20 22 23 25 28 30 31 34 37 40 44 47 49 51 52 53 58 61 69 77 78 79 83 88 90 91 93 100
4 2 5 8 12 15 16 17 18 19 21 26 35 36 38 41 42 45 54 57 60 62 64 65 67 68 71 73 74 75 80 81 82 87 89 95 98
EOF